

(assert (forall ((N Int) (i Int))
  (=>
    (and
      (<= 1 (- i 1))
      (<= 1 (- N 1))
      (<= (+ i 1) (- N 1))
      (<= 0 i)
      (not (or (exists ((j_1 Int)(j_0 Int)) (and (<= j_0 (- i 1)) (<= 0 j_0) (<= 0 j_1) (<= j_1 (- (+ i 1) 1)) (or (and (= i j_1) (= j_0 j_1)) (and (= i (+ i 1)) (= j_0 j_1)) (and (= j_0 j_1) (<= 0 (+ i 1)) (<= (+ i 1) (- j_0 1))) (and (= i (+ i 1)) (<= 0 j_1) (<= j_1 (- j_0 1)))))) (exists ((j_1 Int)(j_0 Int)) (and (or (and (= i (+ i 1)) (= j_0 j_1)) (and (= j_0 j_1) (<= 0 i) (<= i (- (+ i 1) 1))) (and (= i (+ i 1)) (<= 0 j_0) (<= j_0 (- (+ i 1) 1))) (and (= j_0 j_1) (<= 0 (+ i 1)) (<= (+ i 1) (- i 1))) (and (= i (+ i 1)) (<= 0 j_1) (<= j_1 (- i 1)))) (<= j_0 (- N 1)) (<= i j_0) (<= (+ i 1) j_1) (<= j_1 (- N 1)))) (exists ((j_1 Int)(j_0 Int)) (and (or (and (= j_0 (+ i 1)) (= j_0 j_1)) (and (= i (+ i 1)) (= j_0 j_1)) (and (= i (+ i 1)) (<= j_0 (- j_1 1)) (<= 0 j_0)) (and (<= i (- j_1 1)) (<= 0 i) (= j_0 j_1))) (<= j_0 (- i 1)) (<= 0 j_0) (<= 0 j_1) (<= j_1 (- (+ i 1) 1)))) (exists ((j_1 Int)(j_0 Int)) (and (<= j_0 (- N 1)) (or (and (= i (+ i 1)) (= j_0 j_1)) (and (<= i (- j_1 1)) (<= 0 i) (= j_0 j_1)) (and (= j_0 j_1) (<= 0 (+ i 1)) (<= (+ i 1) (- i 1))) (and (= i (+ i 1)) (<= 0 j_1) (<= j_1 (- i 1))) (and (= i (+ i 1)) (<= j_0 (- j_1 1)) (<= 0 j_0))) (<= i j_0) (<= 0 j_1) (<= j_1 (- (+ i 1) 1)))) (exists ((j_1 Int)(j_0 Int)) (and (or (and (= i (+ i 1)) (<= 0 j_0) (<= j_0 (- (+ i 1) 1))) (and (= j_0 (+ i 1)) (= j_0 j_1)) (and (= i (+ i 1)) (= j_0 j_1)) (and (= j_0 j_1) (<= 0 i) (<= i (- (+ i 1) 1)))) (<= j_0 (- i 1)) (<= 0 j_0) (<= (+ i 1) j_1) (<= j_1 (- N 1)))) (exists ((j_1 Int)(j_0 Int)) (and (<= j_0 (- N 1)) (or (and (= i j_1) (= j_0 j_1)) (and (= j_0 j_1) (<= 0 (+ i 1)) (<= (+ i 1) (- i 1))) (and (= i (+ i 1)) (<= 0 j_1) (<= j_1 (- i 1))) (and (= i (+ i 1)) (= j_0 j_1))) (<= i j_0) (<= 0 j_1) (<= j_1 (- (+ i 1) 1)))) (exists ((j_1 Int)(j_0 Int)) (and (or (and (= i (+ i 1)) (<= 0 j_1) (<= j_1 (- j_0 1))) (and (= i (+ i 1)) (= j_0 j_1)) (and (<= i (- j_1 1)) (<= 0 i) (= j_0 j_1)) (and (= i (+ i 1)) (<= j_0 (- j_1 1)) (<= 0 j_0)) (and (= j_0 j_1) (<= 0 (+ i 1)) (<= (+ i 1) (- j_0 1)))) (<= j_0 (- i 1)) (<= 0 j_0) (<= 0 j_1) (<= j_1 (- (+ i 1) 1)))) (exists ((j_1 Int)(j_0 Int)) (and (<= j_0 (- i 1)) (<= 0 j_0) (or (and (= j_0 (+ i 1)) (= j_0 j_1)) (and (= i (+ i 1)) (= j_0 j_1)) (and (= i j_1) (= j_0 j_1))) (<= 0 j_1) (<= j_1 (- (+ i 1) 1)))) (exists ((j_1 Int)(j_0 Int)) (and (or (and (= i (+ i 1)) (<= 0 j_1) (<= j_1 (- j_0 1))) (and (= i (+ i 1)) (= j_0 j_1)) (and (= j_0 j_1) (<= 0 i) (<= i (- (+ i 1) 1))) (and (= i (+ i 1)) (<= 0 j_0) (<= j_0 (- (+ i 1) 1))) (and (= j_0 j_1) (<= 0 (+ i 1)) (<= (+ i 1) (- j_0 1)))) (<= j_0 (- i 1)) (<= 0 j_0) (<= (+ i 1) j_1) (<= j_1 (- N 1))))))
    )
    false
  )
))

(check-sat)